1
30
60
7 5
10 6
5 6
7 2
4 8
9 10
8 5
8 6
4 9
9 3
3 10
9 5
1 7
8 9
4 6
3 6
4 3
10 2
6 1
1 4
7 4
10 2
8 9
4 2
4 8
6 1
2 5
9 10
4 8
1 4
4 7
3 10
10 8
10 10
2 8
9 8
7 9
3 2
10 4
4 3
3 1
1 5
1 2
4 6
2 2
10 8
6 7
4 4
8 9
9 3
7 2
8 5
2 4
10 5
8 7
5 1
3 4
8 5
9 4
8 9
